c This is QMaxSAT 2017 based on 14.07
c This is Glucose 3.0
c This is MiniSat 2.2.0
c WARNING: for repeatability, setting FPU to use double precision
c card = mrwto, comp = 0, pmodel = 0, narr = 24, mct = 127, verb = 0
cr firstCPXsol 0 0 0
c top = 79249421
c |  Number of variables:    45000                                            |
c |  Number of clauses:      6037653                                          |
c |  Weight of hard clauses: 79249421                                         |
c |  Number of soft clauses: 523152                                           |
c |  Number of unit soft clauses: 0                                           |
c |  Maximum Cardinality (by unit): 2376636528   (0           )               |
c last restart ## conflicts  :  0 2232 
o 48294 | cpuTime 0.678841 s
c Sum of weights = 99026522
c A number of soft clauses remained = 21798
c MRWTO encoding for Pseudo-Boolean Constraints
c sizeMax=48294
c No.0 Divisor=15	generated by pow1
c No.1 Divisor=15	generated by pow1
c No.2 Divisor=15	generated by pow1
c No.3 Divisor=15	generated by pow1
c p0= 15	p1= 15	p2= 15	p3= 15	
c number of digits = 5
c linkingVar[0].size = 15, linkingVar[1].size = 15, linkingVar[2].size = 15, linkingVar[3].size = 15, linkingVar[4].size = 1, 
c Pseudo-Boolean Constraints: 806937 variables and 10621276 clauses
c Sum of weights = 99026522
c A number of soft clauses remained = 21798
c MRWTO encoding for Pseudo-Boolean Constraints
c sizeMax=48294
c No.0 Divisor=15	generated by pow1
c No.1 Divisor=15	generated by pow1
c No.2 Divisor=15	generated by pow1
c No.3 Divisor=15	generated by pow1
c p0= 15	p1= 15	p2= 15	p3= 15	
c number of digits = 5
c linkingVar[0].size = 15, linkingVar[1].size = 15, linkingVar[2].size = 15, linkingVar[3].size = 15, linkingVar[4].size = 1, 
c Pseudo-Boolean Constraints: 806937 variables and 10621276 clauses
c Sum of weights = 99026522
c A number of soft clauses remained = 21798
c MRWTO encoding for Pseudo-Boolean Constraints
c sizeMax=48294
c No.0 Divisor=15	generated by pow1
c No.1 Divisor=15	generated by pow1
c No.2 Divisor=15	generated by pow1
c No.3 Divisor=15	generated by pow1
c p0= 15	p1= 15	p2= 15	p3= 15	
c number of digits = 5
c linkingVar[0].size = 15, linkingVar[1].size = 15, linkingVar[2].size = 15, linkingVar[3].size = 15, linkingVar[4].size = 1, 
c Pseudo-Boolean Constraints: 806937 variables and 10621276 clauses
c Sum of weights = 99026522
c A number of soft clauses remained = 21798
c MRWTO encoding for Pseudo-Boolean Constraints
c sizeMax=48294
c No.0 Divisor=15	generated by pow1
c No.1 Divisor=15	generated by pow1
c No.2 Divisor=15	generated by pow1
c No.3 Divisor=15	generated by pow1
c p0= 15	p1= 15	p2= 15	p3= 15	
c number of digits = 5
c linkingVar[0].size = 15, linkingVar[1].size = 15, linkingVar[2].size = 15, linkingVar[3].size = 15, linkingVar[4].size = 1, 
c Pseudo-Boolean Constraints: 806937 variables and 10621276 clauses
c Sum of weights = 99026522
c A number of soft clauses remained = 21798
c MRWTO encoding for Pseudo-Boolean Constraints
c sizeMax=48294
c No.0 Divisor=15	generated by pow1
c No.1 Divisor=15	generated by pow1
c No.2 Divisor=15	generated by pow1
c No.3 Divisor=15	generated by pow1
c p0= 15	p1= 15	p2= 15	p3= 15	
c number of digits = 5
c linkingVar[0].size = 15, linkingVar[1].size = 15, linkingVar[2].size = 15, linkingVar[3].size = 15, linkingVar[4].size = 1, 
c Pseudo-Boolean Constraints: 806937 variables and 10621276 clauses
c Sum of weights = 99026522
c A number of soft clauses remained = 21798
c MRWTO encoding for Pseudo-Boolean Constraints
c sizeMax=48294
c No.0 Divisor=15	generated by pow1
c No.1 Divisor=15	generated by pow1
c No.2 Divisor=15	generated by pow1
c No.3 Divisor=15	generated by pow1
c p0= 15	p1= 15	p2= 15	p3= 15	
c number of digits = 5
c linkingVar[0].size = 15, linkingVar[1].size = 15, linkingVar[2].size = 15, linkingVar[3].size = 15, linkingVar[4].size = 1, 
c Pseudo-Boolean Constraints: 806937 variables and 10621276 clauses
c Sum of weights = 99026522
c A number of soft clauses remained = 21798
c MRWTO encoding for Pseudo-Boolean Constraints
c sizeMax=48294
c No.0 Divisor=15	generated by pow1
c No.1 Divisor=15	generated by pow1
c No.2 Divisor=15	generated by pow1
c No.3 Divisor=15	generated by pow1
c p0= 15	p1= 15	p2= 15	p3= 15	
c number of digits = 5
c linkingVar[0].size = 15, linkingVar[1].size = 15, linkingVar[2].size = 15, linkingVar[3].size = 15, linkingVar[4].size = 1, 
c Pseudo-Boolean Constraints: 806937 variables and 10621276 clauses
c Sum of weights = 99026522
c A number of soft clauses remained = 21798
c MRWTO encoding for Pseudo-Boolean Constraints
c sizeMax=48294
c No.0 Divisor=15	generated by pow1
c No.1 Divisor=15	generated by pow1
c No.2 Divisor=15	generated by pow1
c No.3 Divisor=15	generated by pow1
c p0= 15	p1= 15	p2= 15	p3= 15	
c number of digits = 5
c linkingVar[0].size = 15, linkingVar[1].size = 15, linkingVar[2].size = 15, linkingVar[3].size = 15, linkingVar[4].size = 1, 
c Pseudo-Boolean Constraints: 806937 variables and 10621276 clauses
c Sum of weights = 99026522
c A number of soft clauses remained = 21798
c MRWTO encoding for Pseudo-Boolean Constraints
c sizeMax=48294
c No.0 Divisor=15	generated by pow1
c No.1 Divisor=15	generated by pow1
c No.2 Divisor=15	generated by pow1
c No.3 Divisor=15	generated by pow1
c p0= 15	p1= 15	p2= 15	p3= 15	
c number of digits = 5
c linkingVar[0].size = 15, linkingVar[1].size = 15, linkingVar[2].size = 15, linkingVar[3].size = 15, linkingVar[4].size = 1, 
c Pseudo-Boolean Constraints: 806937 variables and 10621276 clauses
c Sum of weights = 99026522
c A number of soft clauses remained = 21798
c MRWTO encoding for Pseudo-Boolean Constraints
c sizeMax=48294
c No.0 Divisor=15	generated by pow1
c No.1 Divisor=15	generated by pow1
c No.2 Divisor=15	generated by pow1
c No.3 Divisor=15	generated by pow1
c p0= 15	p1= 15	p2= 15	p3= 15	
c number of digits = 5
c linkingVar[0].size = 15, linkingVar[1].size = 15, linkingVar[2].size = 15, linkingVar[3].size = 15, linkingVar[4].size = 1, 
c Pseudo-Boolean Constraints: 806937 variables and 10621276 clauses
c Sum of weights = 99026522
c A number of soft clauses remained = 21798
c MRWTO encoding for Pseudo-Boolean Constraints
c sizeMax=48294
c No.0 Divisor=15	generated by pow1
c No.1 Divisor=15	generated by pow1
c No.2 Divisor=15	generated by pow1
c No.3 Divisor=15	generated by pow1
c p0= 15	p1= 15	p2= 15	p3= 15	
c number of digits = 5
c linkingVar[0].size = 15, linkingVar[1].size = 15, linkingVar[2].size = 15, linkingVar[3].size = 15, linkingVar[4].size = 1, 
c Pseudo-Boolean Constraints: 806937 variables and 10621276 clauses
c Sum of weights = 99026522
c A number of soft clauses remained = 21798
c MRWTO encoding for Pseudo-Boolean Constraints
c sizeMax=48294
c No.0 Divisor=15	generated by pow1
c No.1 Divisor=15	generated by pow1
c No.2 Divisor=15	generated by pow1
c No.3 Divisor=15	generated by pow1
c p0= 15	p1= 15	p2= 15	p3= 15	
c number of digits = 5
c linkingVar[0].size = 15, linkingVar[1].size = 15, linkingVar[2].size = 15, linkingVar[3].size = 15, linkingVar[4].size = 1, 
c Pseudo-Boolean Constraints: 806937 variables and 10621276 clauses
c Sum of weights = 99026522
c A number of soft clauses remained = 21798
c MRWTO encoding for Pseudo-Boolean Constraints
c sizeMax=48294
c No.0 Divisor=15	generated by pow1
c No.1 Divisor=15	generated by pow1
c No.2 Divisor=15	generated by pow1
c No.3 Divisor=15	generated by pow1
c p0= 15	p1= 15	p2= 15	p3= 15	
c number of digits = 5
c linkingVar[0].size = 15, linkingVar[1].size = 15, linkingVar[2].size = 15, linkingVar[3].size = 15, linkingVar[4].size = 1, 
c Pseudo-Boolean Constraints: 806937 variables and 10621276 clauses
c Sum of weights = 99026522
c A number of soft clauses remained = 21798
c MRWTO encoding for Pseudo-Boolean Constraints
c sizeMax=48294
c No.0 Divisor=15	generated by pow1
c No.1 Divisor=15	generated by pow1
c No.2 Divisor=15	generated by pow1
c No.3 Divisor=15	generated by pow1
c p0= 15	p1= 15	p2= 15	p3= 15	
c number of digits = 5
c linkingVar[0].size = 15, linkingVar[1].size = 15, linkingVar[2].size = 15, linkingVar[3].size = 15, linkingVar[4].size = 1, 
c Pseudo-Boolean Constraints: 806937 variables and 10621276 clauses
c Sum of weights = 99026522
c A number of soft clauses remained = 21798
c MRWTO encoding for Pseudo-Boolean Constraints
c sizeMax=48294
c No.0 Divisor=15	generated by pow1
c No.1 Divisor=15	generated by pow1
c No.2 Divisor=15	generated by pow1
c No.3 Divisor=15	generated by pow1
c p0= 15	p1= 15	p2= 15	p3= 15	
c number of digits = 5
c linkingVar[0].size = 15, linkingVar[1].size = 15, linkingVar[2].size = 15, linkingVar[3].size = 15, linkingVar[4].size = 1, 
c Pseudo-Boolean Constraints: 806937 variables and 10621276 clauses
c Sum of weights = 99026522
c A number of soft clauses remained = 21798
c MRWTO encoding for Pseudo-Boolean Constraints
c sizeMax=48294
c No.0 Divisor=15	generated by pow1
c No.1 Divisor=15	generated by pow1
c No.2 Divisor=15	generated by pow1
c No.3 Divisor=15	generated by pow1
c p0= 15	p1= 15	p2= 15	p3= 15	
c number of digits = 5
c linkingVar[0].size = 15, linkingVar[1].size = 15, linkingVar[2].size = 15, linkingVar[3].size = 15, linkingVar[4].size = 1, 
c Pseudo-Boolean Constraints: 806937 variables and 10621276 clauses
c Sum of weights = 99026522
c A number of soft clauses remained = 21798
c MRWTO encoding for Pseudo-Boolean Constraints
c sizeMax=48294
c No.0 Divisor=15	generated by pow1
c No.1 Divisor=15	generated by pow1
c No.2 Divisor=15	generated by pow1
c No.3 Divisor=15	generated by pow1
c p0= 15	p1= 15	p2= 15	p3= 15	
c number of digits = 5
c linkingVar[0].size = 15, linkingVar[1].size = 15, linkingVar[2].size = 15, linkingVar[3].size = 15, linkingVar[4].size = 1, 
c Pseudo-Boolean Constraints: 806937 variables and 10621276 clauses
c Sum of weights = 99026522
c A number of soft clauses remained = 21798
c MRWTO encoding for Pseudo-Boolean Constraints
c sizeMax=48294
c No.0 Divisor=15	generated by pow1
c No.1 Divisor=15	generated by pow1
c No.2 Divisor=15	generated by pow1
c No.3 Divisor=15	generated by pow1
c p0= 15	p1= 15	p2= 15	p3= 15	
c number of digits = 5
c linkingVar[0].size = 15, linkingVar[1].size = 15, linkingVar[2].size = 15, linkingVar[3].size = 15, linkingVar[4].size = 1, 
c Pseudo-Boolean Constraints: 806937 variables and 10621276 clauses
c Sum of weights = 99026522
c A number of soft clauses remained = 21798
c MRWTO encoding for Pseudo-Boolean Constraints
c sizeMax=48294
c No.0 Divisor=15	generated by pow1
c No.1 Divisor=15	generated by pow1
c No.2 Divisor=15	generated by pow1
c No.3 Divisor=15	generated by pow1
c p0= 15	p1= 15	p2= 15	p3= 15	
c number of digits = 5
c linkingVar[0].size = 15, linkingVar[1].size = 15, linkingVar[2].size = 15, linkingVar[3].size = 15, linkingVar[4].size = 1, 
c Pseudo-Boolean Constraints: 806937 variables and 10621276 clauses
c Sum of weights = 99026522
c A number of soft clauses remained = 21798
c MRWTO encoding for Pseudo-Boolean Constraints
c sizeMax=48294
c No.0 Divisor=15	generated by pow1
c No.1 Divisor=15	generated by pow1
c No.2 Divisor=15	generated by pow1
c No.3 Divisor=15	generated by pow1
c p0= 15	p1= 15	p2= 15	p3= 15	
c number of digits = 5
c linkingVar[0].size = 15, linkingVar[1].size = 15, linkingVar[2].size = 15, linkingVar[3].size = 15, linkingVar[4].size = 1, 
c Pseudo-Boolean Constraints: 806937 variables and 10621276 clauses
c Sum of weights = 99026522
c A number of soft clauses remained = 21798
c MRWTO encoding for Pseudo-Boolean Constraints
c sizeMax=48294
c No.0 Divisor=15	generated by pow1
c No.1 Divisor=15	generated by pow1
c No.2 Divisor=15	generated by pow1
c No.3 Divisor=15	generated by pow1
c p0= 15	p1= 15	p2= 15	p3= 15	
c number of digits = 5
c linkingVar[0].size = 15, linkingVar[1].size = 15, linkingVar[2].size = 15, linkingVar[3].size = 15, linkingVar[4].size = 1, 
c Pseudo-Boolean Constraints: 806937 variables and 10621276 clauses
c Sum of weights = 99026522
c A number of soft clauses remained = 21798
c MRWTO encoding for Pseudo-Boolean Constraints
c sizeMax=48294
c No.0 Divisor=15	generated by pow1
c No.1 Divisor=15	generated by pow1
c No.2 Divisor=15	generated by pow1
c No.3 Divisor=15	generated by pow1
c p0= 15	p1= 15	p2= 15	p3= 15	
c number of digits = 5
c linkingVar[0].size = 15, linkingVar[1].size = 15, linkingVar[2].size = 15, linkingVar[3].size = 15, linkingVar[4].size = 1, 
c Pseudo-Boolean Constraints: 806937 variables and 10621276 clauses
c Sum of weights = 99026522
c A number of soft clauses remained = 21798
c MRWTO encoding for Pseudo-Boolean Constraints
c sizeMax=48294
c No.0 Divisor=15	generated by pow1
c No.1 Divisor=15	generated by pow1
c No.2 Divisor=15	generated by pow1
c No.3 Divisor=15	generated by pow1
c p0= 15	p1= 15	p2= 15	p3= 15	
c number of digits = 5
c linkingVar[0].size = 15, linkingVar[1].size = 15, linkingVar[2].size = 15, linkingVar[3].size = 15, linkingVar[4].size = 1, 
c Pseudo-Boolean Constraints: 806937 variables and 10621276 clauses
c Sum of weights = 99026522
c A number of soft clauses remained = 21798
c MRWTO encoding for Pseudo-Boolean Constraints
c sizeMax=48294
c No.0 Divisor=15	generated by pow1
c No.1 Divisor=15	generated by pow1
c No.2 Divisor=15	generated by pow1
c No.3 Divisor=15	generated by pow1
c p0= 15	p1= 15	p2= 15	p3= 15	
c number of digits = 5
c linkingVar[0].size = 15, linkingVar[1].size = 15, linkingVar[2].size = 15, linkingVar[3].size = 15, linkingVar[4].size = 1, 
c Pseudo-Boolean Constraints: 806937 variables and 10621276 clauses
s UNKNOWN
c Search is stopped by a limit (maybe time-limit)
cr positiVarArr: [ | 25(1->2) | 176(1->3) | 327(1->4) | 478(1->5) | 629(1->6) | 780(1->7) | 931(1->8) | 1082(1->9) | 1233(1->10) | 1384(1->11) | 1535(1->12) | 1686(1->13) | 1837(1->14) | 1988(1->15) | 2139(1->16) | 2290(1->17) | 2441(1->18) | 2592(1->19) | 2743(1->20) | 2894(1->21) | 3045(1->22) | 3196(1->23) | 3347(1->24) | 3498(1->25) | 3649(2->26) | 3800(3->27) | 3951(4->28) | 4102(5->29) | 4253(6->30) | 4404(7->31) | 4555(8->32) | 4706(9->33) | 4857(10->34) | 5008(11->35) | 5159(12->36) | 5310(13->37) | 5461(14->38) | 5612(15->39) | 5763(16->40) | 5914(17->41) | 6065(18->42) | 6216(19->43) | 6367(20->44) | 6518(21->45) | 6669(22->46) | 6820(23->47) | 6971(24->48) | 7122(25->49) | 7273(26->50) | 7424(27->51) | 7575(28->52) | 7726(29->53) | 7877(30->54) | 8028(31->55) | 8179(32->56) | 8330(33->57) | 8481(34->58) | 8632(35->59) | 8783(36->60) | 8934(37->61) | 9085(38->62) | 9236(39->63) | 9387(40->64) | 9538(41->65) | 9689(42->66) | 9840(43->67) | 9991(44->68) | 10142(45->69) | 10293(46->70) | 10444(47->71) | 10595(48->72) | 10746(49->73) | 10897(50->74) | 11048(51->75) | 11199(52->76) | 11350(53->77) | 11501(54->78) | 11652(55->79) | 11803(56->80) | 11954(57->81) | 12105(58->82) | 12256(59->83) | 12407(60->84) | 12558(61->85) | 12709(62->86) | 12860(63->87) | 13011(64->88) | 13162(65->89) | 13313(66->90) | 13464(67->91) | 13615(68->92) | 13766(69->93) | 13917(70->94) | 14068(71->95) | 14219(72->96) | 14370(73->97) | 14521(74->98) | 14672(75->99) | 14823(76->100) | 14974(77->101) | 15125(78->102) | 15276(79->103) | 15427(80->104) | 15578(81->105) | 15729(82->106) | 15880(83->107) | 16031(84->108) | 16182(85->109) | 16333(86->110) | 16484(87->111) | 16635(88->112) | 16786(89->113) | 16937(90->114) | 17088(91->115) | 17239(92->116) | 17390(93->117) | 17541(94->118) | 17692(95->119) | 17843(96->120) | 17994(97->121) | 18145(98->122) | 18296(99->123) | 18447(100->124) | 18598(101->125) | 18749(102->126) | 18900(103->127) | 18924(104->1) | 19073(105->1) | 19222(106->1) | 19371(107->1) | 19520(108->1) | 19669(109->1) | 19818(110->1) | 19967(111->1) | 20116(112->1) | 20265(113->1) | 20414(114->1) | 20563(115->1) | 20712(116->1) | 20861(117->1) | 21010(118->1) | 21159(119->1) | 21308(120->1) | 21457(121->1) | 21606(122->1) | 21755(123->1) | 21904(124->1) | 22053(125->1) | 22202(126->1) | 22351(127->1) | ]
cr the 1-th chain: [ 1->2->26->50->74->98->122->1 ] (#non-depot=6) {#cumul.=7}
cr the 2-th chain: [ 1->3->27->51->75->99->123->1 ] (#non-depot=6) {#cumul.=13}
cr the 3-th chain: [ 1->4->28->52->76->100->124->1 ] (#non-depot=6) {#cumul.=19}
cr the 4-th chain: [ 1->5->29->53->77->101->125->1 ] (#non-depot=6) {#cumul.=25}
cr the 5-th chain: [ 1->6->30->54->78->102->126->1 ] (#non-depot=6) {#cumul.=31}
cr the 6-th chain: [ 1->7->31->55->79->103->127->1 ] (#non-depot=6) {#cumul.=37}
cr the 7-th chain: [ 1->8->32->56->80->104->1 ] (#non-depot=5) {#cumul.=42}
cr the 8-th chain: [ 1->9->33->57->81->105->1 ] (#non-depot=5) {#cumul.=47}
cr the 9-th chain: [ 1->10->34->58->82->106->1 ] (#non-depot=5) {#cumul.=52}
cr the 10-th chain: [ 1->11->35->59->83->107->1 ] (#non-depot=5) {#cumul.=57}
cr the 11-th chain: [ 1->12->36->60->84->108->1 ] (#non-depot=5) {#cumul.=62}
cr the 12-th chain: [ 1->13->37->61->85->109->1 ] (#non-depot=5) {#cumul.=67}
cr the 13-th chain: [ 1->14->38->62->86->110->1 ] (#non-depot=5) {#cumul.=72}
cr the 14-th chain: [ 1->15->39->63->87->111->1 ] (#non-depot=5) {#cumul.=77}
cr the 15-th chain: [ 1->16->40->64->88->112->1 ] (#non-depot=5) {#cumul.=82}
cr the 16-th chain: [ 1->17->41->65->89->113->1 ] (#non-depot=5) {#cumul.=87}
cr the 17-th chain: [ 1->18->42->66->90->114->1 ] (#non-depot=5) {#cumul.=92}
cr the 18-th chain: [ 1->19->43->67->91->115->1 ] (#non-depot=5) {#cumul.=97}
cr the 19-th chain: [ 1->20->44->68->92->116->1 ] (#non-depot=5) {#cumul.=102}
cr the 20-th chain: [ 1->21->45->69->93->117->1 ] (#non-depot=5) {#cumul.=107}
cr the 21-th chain: [ 1->22->46->70->94->118->1 ] (#non-depot=5) {#cumul.=112}
cr the 22-th chain: [ 1->23->47->71->95->119->1 ] (#non-depot=5) {#cumul.=117}
cr the 23-th chain: [ 1->24->48->72->96->120->1 ] (#non-depot=5) {#cumul.=122}
cr the 24-th chain: [ 1->25->49->73->97->121->1 ] (#non-depot=5) {#cumul.=127}
c Latest Answer = 0 by 1 loops
c restarts              : 1469
c conflicts             : 226468         (63 /sec)
c decisions             : 80101770       (0.00 % random) (22227 /sec)
c propagations          : 23695640279    (6575262 /sec)
c conflict literals     : 12243325       (8.23 % deleted)
c Memory used           : 19529.00 MB
c CPU time              : 3603.76 s
